PARAMETER_FILE = even/even_complete_graph_new/par/random103.par
PROBLEM_FILE = even/even_complete_graph_new/mat/random103.tsp
Successes/Runs = 0/10
Cost.min = 782, Cost.avg = 782.00, Cost.max = 782
Gap.min = 0.0000%, Gap.avg = 0.0000%, Gap.max = 0.0000%
Trials.min = 1000, Trials.avg = 1000.0, Trials.max = 1000
Time.min = 0.34 sec., Time.avg = 0.41 sec., Time.max = 0.61 sec.
Time.total = 4.24 sec.
请按任意键继续. . . 
